NAME : amz2745.126439_126439.tour
COMMENT : Cost = 126439_126439
COMMENT : Found by LKH-AMZ [Keld Helsgaun] Sun May 11 14:09:26 2025
COMMENT : TW viol.: 0 #: 0
TYPE : TOUR
DIMENSION : 131
TOUR_SECTION
21
25
120
40
23
19
109
93
65
108
63
13
42
1
31
123
121
55
44
82
56
32
41
78
90
51
128
81
2
94
87
77
9
124
3
62
95
45
26
116
17
15
12
50
99
113
118
125
6
76
101
16
79
11
4
100
107
34
68
35
91
92
89
122
66
75
10
20
28
71
7
69
8
53
106
58
47
70
80
5
104
117
18
60
29
102
27
67
98
22
126
130
97
64
24
129
33
85
112
52
14
103
96
74
38
127
105
131
119
49
30
59
57
86
83
39
73
54
61
37
72
84
111
115
46
88
48
43
110
114
36
-1
EOF
